\ LP format - for model browsing. Use MPS format to capture full model detail.
Minimize
  5 y_e_0_0_5_0 + 5 y_e_0_0_0_5 + 5 y_e_0_5_5_5 + 5 y_e_0_5_0_10
   + 5 y_e_0_10_5_10 + 5 y_e_5_0_10_0 + 5 y_e_5_0_5_5 + 5 y_e_5_5_10_5
   + 5 y_e_5_5_5_10 + 5 y_e_5_10_10_10 + 5 y_e_10_0_10_5 + 5 y_e_10_5_10_10
Subject To
 constr(0): x_e_0_0_5_0_t_10_5 + x_e_0_0_0_5_t_10_5 = 1
 constr(1): x_e_0_5_0_0_t_10_5 + x_e_5_0_0_0_t_10_5 = 0
 constr(2): x_e_0_0_5_0_t_5_10 + x_e_0_0_0_5_t_5_10 = 1
 constr(3): x_e_0_5_0_0_t_5_10 + x_e_5_0_0_0_t_5_10 = 0
 constr(4): x_e_5_5_10_5_t_10_5 + x_e_10_0_10_5_t_10_5
   + x_e_10_10_10_5_t_10_5 = 1
 constr(5): x_e_10_5_5_5_t_10_5 + x_e_10_5_10_0_t_10_5
   + x_e_10_5_10_10_t_10_5 = 0
 constr(6): x_e_0_10_5_10_t_5_10 + x_e_5_5_5_10_t_5_10
   + x_e_10_10_5_10_t_5_10 = 1
 constr(7): x_e_5_10_0_10_t_5_10 + x_e_5_10_5_5_t_5_10
   + x_e_5_10_10_10_t_5_10 = 0
 constr(8): x_e_0_0_5_0_t_10_5 + x_e_5_0_0_0_t_10_5 - y_e_0_0_5_0 <= 0
 constr(9): x_e_0_0_5_0_t_5_10 + x_e_5_0_0_0_t_5_10 - y_e_0_0_5_0 <= 0
 constr(10): x_e_0_0_0_5_t_10_5 + x_e_0_5_0_0_t_10_5 - y_e_0_0_0_5 <= 0
 constr(11): x_e_0_0_0_5_t_5_10 + x_e_0_5_0_0_t_5_10 - y_e_0_0_0_5 <= 0
 constr(12): x_e_0_5_5_5_t_10_5 + x_e_5_5_0_5_t_10_5 - y_e_0_5_5_5 <= 0
 constr(13): x_e_0_5_5_5_t_5_10 + x_e_5_5_0_5_t_5_10 - y_e_0_5_5_5 <= 0
 constr(14): x_e_0_5_0_10_t_10_5 + x_e_0_10_0_5_t_10_5 - y_e_0_5_0_10 <= 0
 constr(15): x_e_0_5_0_10_t_5_10 + x_e_0_10_0_5_t_5_10 - y_e_0_5_0_10 <= 0
 constr(16): x_e_0_10_5_10_t_10_5 + x_e_5_10_0_10_t_10_5 - y_e_0_10_5_10
   <= 0
 constr(17): x_e_0_10_5_10_t_5_10 + x_e_5_10_0_10_t_5_10 - y_e_0_10_5_10
   <= 0
 constr(18): x_e_5_0_10_0_t_10_5 + x_e_10_0_5_0_t_10_5 - y_e_5_0_10_0 <= 0
 constr(19): x_e_5_0_10_0_t_5_10 + x_e_10_0_5_0_t_5_10 - y_e_5_0_10_0 <= 0
 constr(20): x_e_5_0_5_5_t_10_5 + x_e_5_5_5_0_t_10_5 - y_e_5_0_5_5 <= 0
 constr(21): x_e_5_0_5_5_t_5_10 + x_e_5_5_5_0_t_5_10 - y_e_5_0_5_5 <= 0
 constr(22): x_e_5_5_10_5_t_10_5 + x_e_10_5_5_5_t_10_5 - y_e_5_5_10_5 <= 0
 constr(23): x_e_5_5_10_5_t_5_10 + x_e_10_5_5_5_t_5_10 - y_e_5_5_10_5 <= 0
 constr(24): x_e_5_5_5_10_t_10_5 + x_e_5_10_5_5_t_10_5 - y_e_5_5_5_10 <= 0
 constr(25): x_e_5_5_5_10_t_5_10 + x_e_5_10_5_5_t_5_10 - y_e_5_5_5_10 <= 0
 constr(26): x_e_5_10_10_10_t_10_5 + x_e_10_10_5_10_t_10_5 - y_e_5_10_10_10
   <= 0
 constr(27): x_e_5_10_10_10_t_5_10 + x_e_10_10_5_10_t_5_10 - y_e_5_10_10_10
   <= 0
 constr(28): x_e_10_0_10_5_t_10_5 + x_e_10_5_10_0_t_10_5 - y_e_10_0_10_5
   <= 0
 constr(29): x_e_10_0_10_5_t_5_10 + x_e_10_5_10_0_t_5_10 - y_e_10_0_10_5
   <= 0
 constr(30): x_e_10_5_10_10_t_10_5 + x_e_10_10_10_5_t_10_5 - y_e_10_5_10_10
   <= 0
 constr(31): x_e_10_5_10_10_t_5_10 + x_e_10_10_10_5_t_5_10 - y_e_10_5_10_10
   <= 0
 constr(32): x_e_0_5_5_5_t_10_5 + x_e_5_0_5_5_t_10_5 - x_e_5_5_0_5_t_10_5
   - x_e_5_5_5_0_t_10_5 - x_e_5_5_10_5_t_10_5 - x_e_5_5_5_10_t_10_5
   + x_e_5_10_5_5_t_10_5 + x_e_10_5_5_5_t_10_5 = 0
 constr(33): x_e_0_5_0_10_t_10_5 - x_e_0_10_0_5_t_10_5
   - x_e_0_10_5_10_t_10_5 + x_e_5_10_0_10_t_10_5 = 0
 constr(34): x_e_5_10_10_10_t_10_5 + x_e_10_5_10_10_t_10_5
   - x_e_10_10_5_10_t_10_5 - x_e_10_10_10_5_t_10_5 = 0
 constr(35): x_e_0_10_5_10_t_10_5 + x_e_5_5_5_10_t_10_5
   - x_e_5_10_0_10_t_10_5 - x_e_5_10_5_5_t_10_5 - x_e_5_10_10_10_t_10_5
   + x_e_10_10_5_10_t_10_5 = 0
 constr(36): x_e_5_0_10_0_t_10_5 - x_e_10_0_5_0_t_10_5
   - x_e_10_0_10_5_t_10_5 + x_e_10_5_10_0_t_10_5 = 0
 constr(37): x_e_0_0_5_0_t_10_5 - x_e_5_0_0_0_t_10_5 - x_e_5_0_10_0_t_10_5
   - x_e_5_0_5_5_t_10_5 + x_e_5_5_5_0_t_10_5 + x_e_10_0_5_0_t_10_5 = 0
 constr(38): x_e_0_0_0_5_t_10_5 - x_e_0_5_0_0_t_10_5 - x_e_0_5_5_5_t_10_5
   - x_e_0_5_0_10_t_10_5 + x_e_0_10_0_5_t_10_5 + x_e_5_5_0_5_t_10_5 = 0
 constr(39): x_e_5_5_10_5_t_5_10 + x_e_10_0_10_5_t_5_10
   - x_e_10_5_5_5_t_5_10 - x_e_10_5_10_0_t_5_10 - x_e_10_5_10_10_t_5_10
   + x_e_10_10_10_5_t_5_10 = 0
 constr(40): x_e_0_5_5_5_t_5_10 + x_e_5_0_5_5_t_5_10 - x_e_5_5_0_5_t_5_10
   - x_e_5_5_5_0_t_5_10 - x_e_5_5_10_5_t_5_10 - x_e_5_5_5_10_t_5_10
   + x_e_5_10_5_5_t_5_10 + x_e_10_5_5_5_t_5_10 = 0
 constr(41): x_e_0_5_0_10_t_5_10 - x_e_0_10_0_5_t_5_10
   - x_e_0_10_5_10_t_5_10 + x_e_5_10_0_10_t_5_10 = 0
 constr(42): x_e_5_10_10_10_t_5_10 + x_e_10_5_10_10_t_5_10
   - x_e_10_10_5_10_t_5_10 - x_e_10_10_10_5_t_5_10 = 0
 constr(43): x_e_5_0_10_0_t_5_10 - x_e_10_0_5_0_t_5_10
   - x_e_10_0_10_5_t_5_10 + x_e_10_5_10_0_t_5_10 = 0
 constr(44): x_e_0_0_5_0_t_5_10 - x_e_5_0_0_0_t_5_10 - x_e_5_0_10_0_t_5_10
   - x_e_5_0_5_5_t_5_10 + x_e_5_5_5_0_t_5_10 + x_e_10_0_5_0_t_5_10 = 0
 constr(45): x_e_0_0_0_5_t_5_10 - x_e_0_5_0_0_t_5_10 - x_e_0_5_5_5_t_5_10
   - x_e_0_5_0_10_t_5_10 + x_e_0_10_0_5_t_5_10 + x_e_5_5_0_5_t_5_10 = 0
Bounds
 x_e_0_0_5_0_t_10_5 <= 1
 x_e_0_0_0_5_t_10_5 <= 1
 x_e_0_5_0_0_t_10_5 <= 1
 x_e_0_5_5_5_t_10_5 <= 1
 x_e_0_5_0_10_t_10_5 <= 1
 x_e_0_10_0_5_t_10_5 <= 1
 x_e_0_10_5_10_t_10_5 <= 1
 x_e_5_0_0_0_t_10_5 <= 1
 x_e_5_0_10_0_t_10_5 <= 1
 x_e_5_0_5_5_t_10_5 <= 1
 x_e_5_5_0_5_t_10_5 <= 1
 x_e_5_5_5_0_t_10_5 <= 1
 x_e_5_5_10_5_t_10_5 <= 1
 x_e_5_5_5_10_t_10_5 <= 1
 x_e_5_10_0_10_t_10_5 <= 1
 x_e_5_10_5_5_t_10_5 <= 1
 x_e_5_10_10_10_t_10_5 <= 1
 x_e_10_0_5_0_t_10_5 <= 1
 x_e_10_0_10_5_t_10_5 <= 1
 x_e_10_5_5_5_t_10_5 <= 1
 x_e_10_5_10_0_t_10_5 <= 1
 x_e_10_5_10_10_t_10_5 <= 1
 x_e_10_10_5_10_t_10_5 <= 1
 x_e_10_10_10_5_t_10_5 <= 1
 x_e_0_0_5_0_t_5_10 <= 1
 x_e_0_0_0_5_t_5_10 <= 1
 x_e_0_5_0_0_t_5_10 <= 1
 x_e_0_5_5_5_t_5_10 <= 1
 x_e_0_5_0_10_t_5_10 <= 1
 x_e_0_10_0_5_t_5_10 <= 1
 x_e_0_10_5_10_t_5_10 <= 1
 x_e_5_0_0_0_t_5_10 <= 1
 x_e_5_0_10_0_t_5_10 <= 1
 x_e_5_0_5_5_t_5_10 <= 1
 x_e_5_5_0_5_t_5_10 <= 1
 x_e_5_5_5_0_t_5_10 <= 1
 x_e_5_5_10_5_t_5_10 <= 1
 x_e_5_5_5_10_t_5_10 <= 1
 x_e_5_10_0_10_t_5_10 <= 1
 x_e_5_10_5_5_t_5_10 <= 1
 x_e_5_10_10_10_t_5_10 <= 1
 x_e_10_0_5_0_t_5_10 <= 1
 x_e_10_0_10_5_t_5_10 <= 1
 x_e_10_5_5_5_t_5_10 <= 1
 x_e_10_5_10_0_t_5_10 <= 1
 x_e_10_5_10_10_t_5_10 <= 1
 x_e_10_10_5_10_t_5_10 <= 1
 x_e_10_10_10_5_t_5_10 <= 1
Binaries
 y_e_0_0_5_0 y_e_0_0_0_5 y_e_0_5_5_5 y_e_0_5_0_10 y_e_0_10_5_10
 y_e_5_0_10_0 y_e_5_0_5_5 y_e_5_5_10_5 y_e_5_5_5_10 y_e_5_10_10_10
 y_e_10_0_10_5 y_e_10_5_10_10
End
